8508 4976
5400 4260
2006 791
5619 7208
7884 5884
5534 6999
4699 9490
2609 8848
5857 3272
4592 4214
8327 4925
8276 181
9583 9035
7985 2064
7963 3882
2121 4020
6556 7611
6643 1953
8132 5496
457 7611
5427 1286
1405 5412
8556 2303
687 4293
8224 4810
2435 3963
9798 6936
8767 3453
7987 7753
1952 2539
8499 8849
379 9305
6948 9077
6670 1109
8604 8661
5307 9070
4714 4504
3392 2303
7592 6616
706 132
3867 2746
8822 7074
232 8010
1170 791
8885 5653
3865 4820
3178 52
5896 2752
2942 2261
8464 1132
